\ Generated by MPModelProtoExporter
\   Name             : 
\   Format           : Free
\   Constraints      : 174
\   Variables        : 23
\     Binary         : 0
\     Integer        : 0
\     Continuous     : 23
Maximize
 Obj: -4 _1 -1 _2 -1 _3 -1 _4 -1 _5 +1 _0AT_1 +1 _0CN_2 +1 _0CT_3 +1 _0IT1_4 +1 _0K_5 +1 _0MC_1_2_3 +1 _0MI_1_4 +1 _0MK_1_5 +1 _0T_1 
Subject to
 Mono_Ineq.__H(0AT_1)____H(0AT): -1 _0AT +1 _0AT_1  >= 0
 Mono_Ineq.__H(0AT_1)____H(1): -1 _1 +1 _0AT_1  >= 0
 Additivity_Ineq.__H(0AT_1)____H(0AT)___H(1): -1 _1 -1 _0AT +1 _0AT_1  <= 0
 Mono_Ineq.__H(0CN_2)____H(0CN): -1 _0CN +1 _0CN_2  >= 0
 Mono_Ineq.__H(0CN_2)____H(2): -1 _2 +1 _0CN_2  >= 0
 Additivity_Ineq.__H(0CN_2)____H(0CN)___H(2): -1 _2 -1 _0CN +1 _0CN_2  <= 0
 Mono_Ineq.__H(0CT_3)____H(0CT): -1 _0CT +1 _0CT_3  >= 0
 Mono_Ineq.__H(0CT_3)____H(3): -1 _3 +1 _0CT_3  >= 0
 Additivity_Ineq.__H(0CT_3)____H(0CT)___H(3): -1 _3 -1 _0CT +1 _0CT_3  <= 0
 Mono_Ineq.__H(0IT1_4)____H(0IT1): -1 _0IT1 +1 _0IT1_4  >= 0
 Mono_Ineq.__H(0IT1_4)____H(4): -1 _4 +1 _0IT1_4  >= 0
 Additivity_Ineq.__H(0IT1_4)____H(0IT1)___H(4): -1 _4 -1 _0IT1 +1 _0IT1_4  <= 0
 Mono_Ineq.__H(0K_5)____H(0K): -1 _0K +1 _0K_5  >= 0
 Mono_Ineq.__H(0K_5)____H(5): -1 _5 +1 _0K_5  >= 0
 Additivity_Ineq.__H(0K_5)____H(0K)___H(5): -1 _5 -1 _0K +1 _0K_5  <= 0
 Mono_Ineq.__H(0MC_1_2_3)____H(0MC): -1 _0MC +1 _0MC_1_2_3  >= 0
 Mono_Ineq.__H(0MC_1_2_3)____H(1): -1 _1 +1 _0MC_1_2_3  >= 0
 Mono_Ineq.__H(0MC_1_2_3)____H(3): -1 _3 +1 _0MC_1_2_3  >= 0
 Mono_Ineq.__H(0MC_1_2_3)____H(2): -1 _2 +1 _0MC_1_2_3  >= 0
 Additivity_Ineq.__H(0MC_1_2_3)____H(0MC)___H(1)___H(3)___H(2): -1 _1 -1 _2 -1 _3 -1 _0MC +1 _0MC_1_2_3  <= 0
 Mono_Ineq.__H(0MI_1_4)____H(0MI): -1 _0MI +1 _0MI_1_4  >= 0
 Mono_Ineq.__H(0MI_1_4)____H(1): -1 _1 +1 _0MI_1_4  >= 0
 Mono_Ineq.__H(0MI_1_4)____H(4): -1 _4 +1 _0MI_1_4  >= 0
 Additivity_Ineq.__H(0MI_1_4)____H(0MI)___H(1)___H(4): -1 _1 -1 _4 -1 _0MI +1 _0MI_1_4  <= 0
 Mono_Ineq.__H(0MK_1_5)____H(0MK): -1 _0MK +1 _0MK_1_5  >= 0
 Mono_Ineq.__H(0MK_1_5)____H(1): -1 _1 +1 _0MK_1_5  >= 0
 Mono_Ineq.__H(0MK_1_5)____H(5): -1 _5 +1 _0MK_1_5  >= 0
 Additivity_Ineq.__H(0MK_1_5)____H(0MK)___H(1)___H(5): -1 _1 -1 _5 -1 _0MK +1 _0MK_1_5  <= 0
 Mono_Ineq.__H(0T_1)____H(0T): -1 _0T +1 _0T_1  >= 0
 Mono_Ineq.__H(0T_1)____H(1): -1 _1 +1 _0T_1  >= 0
 Additivity_Ineq.__H(0T_1)____H(0T)___H(1): -1 _1 -1 _0T +1 _0T_1  <= 0
 Statistics_Ineq._1__1___h(0AT_1)___0___h(1)____1___log2(361472.0)_|_1_|_AT.MOVIE_ID: +1 _0AT_1  <= 18.4635
 Statistics_Ineq._2__2___h(0AT_1)___1___h(1)____2___log2(994.7220717366233)_|_2_|_AT.MOVIE_ID: -1 _1 +2 _0AT_1  <= 19.9163
 Statistics_Ineq._3__3___h(0AT_1)___2___h(1)____3___log2(171.09664748469064)_|_3_|_AT.MOVIE_ID: -2 _1 +3 _0AT_1  <= 22.256
 Statistics_Ineq._4__4___h(0AT_1)___3___h(1)____4___log2(101.34002458204658)_|_4_|_AT.MOVIE_ID: -3 _1 +4 _0AT_1  <= 26.6522
 Statistics_Ineq._5__5___h(0AT_1)___4___h(1)____5___log2(94.27506837735328)_|_5_|_AT.MOVIE_ID: -4 _1 +5 _0AT_1  <= 32.794
 Statistics_Ineq._6__6___h(0AT_1)___5___h(1)____6___log2(93.35456865679512)_|_6_|_AT.MOVIE_ID: -5 _1 +6 _0AT_1  <= 39.2679
 Statistics_Ineq._7__7___h(0AT_1)___6___h(1)____7___log2(93.12770519257028)_|_7_|_AT.MOVIE_ID: -6 _1 +7 _0AT_1  <= 45.788
 Statistics_Ineq._8__8___h(0AT_1)___7___h(1)____8___log2(93.05002273657813)_|_8_|_AT.MOVIE_ID: -7 _1 +8 _0AT_1  <= 52.3195
 Statistics_Ineq._9__9___h(0AT_1)___8___h(1)____9___log2(93.02028052398863)_|_9_|_AT.MOVIE_ID: -8 _1 +9 _0AT_1  <= 58.8553
 Statistics_Ineq._10__10___h(0AT_1)___9___h(1)____10___log2(93.00838214976069)_|_10_|_AT.MOVIE_ID: -9 _1 +10 _0AT_1  <= 65.3929
 Statistics_Ineq._11__h(0AT_1)___h(1)____log2(93.0)_|_inf_|_AT.MOVIE_ID: -1 _1 +1 _0AT_1  <= 6.53916
 Statistics_Ineq._12__1___h(0CN_2)___0___h(2)____1___log2(234997.0)_|_1_|_CN.ID: +1 _0CN_2  <= 17.8423
 Statistics_Ineq._13__2___h(0CN_2)___1___h(2)____2___log2(484.76489146801873)_|_2_|_CN.ID: -1 _2 +2 _0CN_2  <= 17.8423
 Statistics_Ineq._14__3___h(0CN_2)___2___h(2)____3___log2(61.709795330658544)_|_3_|_CN.ID: -2 _2 +3 _0CN_2  <= 17.8423
 Statistics_Ineq._15__4___h(0CN_2)___3___h(2)____4___log2(22.017377034243175)_|_4_|_CN.ID: -3 _2 +4 _0CN_2  <= 17.8423
 Statistics_Ineq._16__5___h(0CN_2)___4___h(2)____5___log2(11.863489865870786)_|_5_|_CN.ID: -4 _2 +5 _0CN_2  <= 17.8423
 Statistics_Ineq._17__6___h(0CN_2)___5___h(2)____6___log2(7.855558244368031)_|_6_|_CN.ID: -5 _2 +6 _0CN_2  <= 17.8423
 Statistics_Ineq._18__7___h(0CN_2)___6___h(2)____7___log2(5.851869288664952)_|_7_|_CN.ID: -6 _2 +7 _0CN_2  <= 17.8423
 Statistics_Ineq._19__8___h(0CN_2)___7___h(2)____8___log2(4.692267792256019)_|_8_|_CN.ID: -7 _2 +8 _0CN_2  <= 17.8423
 Statistics_Ineq._20__9___h(0CN_2)___8___h(2)____9___log2(3.95170668822707)_|_9_|_CN.ID: -8 _2 +9 _0CN_2  <= 17.8423
 Statistics_Ineq._21__10___h(0CN_2)___9___h(2)____10___log2(3.4443417173490185)_|_10_|_CN.ID: -9 _2 +10 _0CN_2  <= 17.8423
 Statistics_Ineq._22__h(0CN_2)___h(2)____log2(1.0)_|_inf_|_CN.ID: -1 _2 +1 _0CN_2  <= 0
 Statistics_Ineq._23__1___h(0CT_3)___0___h(3)____1___log2(2.0)_|_1_|_CT.ID: +1 _0CT_3  <= 1
 Statistics_Ineq._24__2___h(0CT_3)___1___h(3)____2___log2(1.4142135623730951)_|_2_|_CT.ID: -1 _3 +2 _0CT_3  <= 1
 Statistics_Ineq._25__3___h(0CT_3)___2___h(3)____3___log2(1.2599210498948732)_|_3_|_CT.ID: -2 _3 +3 _0CT_3  <= 1
 Statistics_Ineq._26__4___h(0CT_3)___3___h(3)____4___log2(1.189207115002721)_|_4_|_CT.ID: -3 _3 +4 _0CT_3  <= 1
 Statistics_Ineq._27__5___h(0CT_3)___4___h(3)____5___log2(1.148698354997035)_|_5_|_CT.ID: -4 _3 +5 _0CT_3  <= 1
 Statistics_Ineq._28__6___h(0CT_3)___5___h(3)____6___log2(1.122462048309373)_|_6_|_CT.ID: -5 _3 +6 _0CT_3  <= 1
 Statistics_Ineq._29__7___h(0CT_3)___6___h(3)____7___log2(1.1040895136738123)_|_7_|_CT.ID: -6 _3 +7 _0CT_3  <= 1
 Statistics_Ineq._30__8___h(0CT_3)___7___h(3)____8___log2(1.0905077326652577)_|_8_|_CT.ID: -7 _3 +8 _0CT_3  <= 1
 Statistics_Ineq._31__9___h(0CT_3)___8___h(3)____9___log2(1.080059738892306)_|_9_|_CT.ID: -8 _3 +9 _0CT_3  <= 1
 Statistics_Ineq._32__10___h(0CT_3)___9___h(3)____10___log2(1.0717734625362931)_|_10_|_CT.ID: -9 _3 +10 _0CT_3  <= 1
 Statistics_Ineq._33__h(0CT_3)___h(3)____log2(1.0)_|_inf_|_CT.ID: -1 _3 +1 _0CT_3  <= 0
 Statistics_Ineq._34__1___h(0IT1_4)___0___h(4)____1___log2(113.0)_|_1_|_IT1.ID: +1 _0IT1_4  <= 6.82018
 Statistics_Ineq._35__2___h(0IT1_4)___1___h(4)____2___log2(10.63014581273465)_|_2_|_IT1.ID: -1 _4 +2 _0IT1_4  <= 6.82018
 Statistics_Ineq._36__3___h(0IT1_4)___2___h(4)____3___log2(4.834588127111639)_|_3_|_IT1.ID: -2 _4 +3 _0IT1_4  <= 6.82018
 Statistics_Ineq._37__4___h(0IT1_4)___3___h(4)____4___log2(3.260390438695134)_|_4_|_IT1.ID: -3 _4 +4 _0IT1_4  <= 6.82018
 Statistics_Ineq._38__5___h(0IT1_4)___4___h(4)____5___log2(2.574042354407865)_|_5_|_IT1.ID: -4 _4 +5 _0IT1_4  <= 6.82018
 Statistics_Ineq._39__6___h(0IT1_4)___5___h(4)____6___log2(2.198769684871892)_|_6_|_IT1.ID: -5 _4 +6 _0IT1_4  <= 6.82018
 Statistics_Ineq._40__7___h(0IT1_4)___6___h(4)____7___log2(1.9647030552069988)_|_7_|_IT1.ID: -6 _4 +7 _0IT1_4  <= 6.82018
 Statistics_Ineq._41__8___h(0IT1_4)___7___h(4)____8___log2(1.8056551272862529)_|_8_|_IT1.ID: -7 _4 +8 _0IT1_4  <= 6.82018
 Statistics_Ineq._42__9___h(0IT1_4)___8___h(4)____9___log2(1.6909074089110399)_|_9_|_IT1.ID: -8 _4 +9 _0IT1_4  <= 6.82018
 Statistics_Ineq._43__10___h(0IT1_4)___9___h(4)____10___log2(1.6043822345089294)_|_10_|_IT1.ID: -9 _4 +10 _0IT1_4  <= 6.82018
 Statistics_Ineq._44__h(0IT1_4)___h(4)____log2(1.0)_|_inf_|_IT1.ID: -1 _4 +1 _0IT1_4  <= 0
 Statistics_Ineq._45__1___h(0K_5)___0___h(5)____1___log2(134170.0)_|_1_|_K.ID: +1 _0K_5  <= 17.0337
 Statistics_Ineq._46__2___h(0K_5)___1___h(5)____2___log2(366.29223305988893)_|_2_|_K.ID: -1 _5 +2 _0K_5  <= 17.0337
 Statistics_Ineq._47__3___h(0K_5)___2___h(5)____3___log2(51.19393035144834)_|_3_|_K.ID: -2 _5 +3 _0K_5  <= 17.0337
 Statistics_Ineq._48__4___h(0K_5)___3___h(5)____4___log2(19.138762579119085)_|_4_|_K.ID: -3 _5 +4 _0K_5  <= 17.0337
 Statistics_Ineq._49__5___h(0K_5)___4___h(5)____5___log2(10.605498428686793)_|_5_|_K.ID: -4 _5 +5 _0K_5  <= 17.0337
 Statistics_Ineq._50__6___h(0K_5)___5___h(5)____6___log2(7.154993385842389)_|_6_|_K.ID: -5 _5 +6 _0K_5  <= 17.0337
 Statistics_Ineq._51__7___h(0K_5)___6___h(5)____7___log2(5.401597291274521)_|_7_|_K.ID: -6 _5 +7 _0K_5  <= 17.0337
 Statistics_Ineq._52__8___h(0K_5)___7___h(5)____8___log2(4.374787146721436)_|_8_|_K.ID: -7 _5 +8 _0K_5  <= 17.0337
 Statistics_Ineq._53__9___h(0K_5)___8___h(5)____9___log2(3.713124327690797)_|_9_|_K.ID: -8 _5 +9 _0K_5  <= 17.0337
 Statistics_Ineq._54__10___h(0K_5)___9___h(5)____10___log2(3.2566084242178692)_|_10_|_K.ID: -9 _5 +10 _0K_5  <= 17.0337
 Statistics_Ineq._55__h(0K_5)___h(5)____log2(1.0)_|_inf_|_K.ID: -1 _5 +1 _0K_5  <= 0
 Statistics_Ineq._56__1___h(0MC_1_2_3)___0___h(1)____1___log2(1367548.0)_|_1_|_MC.MOVIE_ID: +1 _0MC_1_2_3  <= 20.3832
 Statistics_Ineq._57__2___h(0MC_1_2_3)___1___h(1)____2___log2(3507.476015598681)_|_2_|_MC.MOVIE_ID: -1 _1 +2 _0MC_1_2_3  <= 23.5524
 Statistics_Ineq._58__3___h(0MC_1_2_3)___2___h(1)____3___log2(605.3590019190082)_|_3_|_MC.MOVIE_ID: -2 _1 +3 _0MC_1_2_3  <= 27.7249
 Statistics_Ineq._59__4___h(0MC_1_2_3)___3___h(1)____4___log2(283.9525360125304)_|_4_|_MC.MOVIE_ID: -3 _1 +4 _0MC_1_2_3  <= 32.598
 Statistics_Ineq._60__5___h(0MC_1_2_3)___4___h(1)____5___log2(190.20610776836628)_|_5_|_MC.MOVIE_ID: -4 _1 +5 _0MC_1_2_3  <= 37.8571
 Statistics_Ineq._61__6___h(0MC_1_2_3)___5___h(1)____6___log2(149.89705674071735)_|_6_|_MC.MOVIE_ID: -5 _1 +6 _0MC_1_2_3  <= 43.367
 Statistics_Ineq._62__7___h(0MC_1_2_3)___6___h(1)____7___log2(128.94997086405542)_|_7_|_MC.MOVIE_ID: -6 _1 +7 _0MC_1_2_3  <= 49.0747
 Statistics_Ineq._63__8___h(0MC_1_2_3)___7___h(1)____8___log2(116.88883894679554)_|_8_|_MC.MOVIE_ID: -7 _1 +8 _0MC_1_2_3  <= 54.9519
 Statistics_Ineq._64__9___h(0MC_1_2_3)___8___h(1)____9___log2(109.52056838816148)_|_9_|_MC.MOVIE_ID: -8 _1 +9 _0MC_1_2_3  <= 60.9755
 Statistics_Ineq._65__10___h(0MC_1_2_3)___9___h(1)____10___log2(104.84819107267575)_|_10_|_MC.MOVIE_ID: -9 _1 +10 _0MC_1_2_3  <= 67.1216
 Statistics_Ineq._66__h(0MC_1_2_3)___h(1)____log2(94.0)_|_inf_|_MC.MOVIE_ID: -1 _1 +1 _0MC_1_2_3  <= 6.55459
 Statistics_Ineq._67__1___h(0MC_1_2_3)___0___h(3)____1___log2(2609129.0)_|_1_|_MC.COMPANY_TYPE_ID: +1 _0MC_1_2_3  <= 21.3151
 Statistics_Ineq._68__2___h(0MC_1_2_3)___1___h(3)____2___log2(1845430.977361386)_|_2_|_MC.COMPANY_TYPE_ID: -1 _3 +2 _0MC_1_2_3  <= 41.6311
 Statistics_Ineq._69__3___h(0MC_1_2_3)___2___h(3)____3___log2(1644535.5505828804)_|_3_|_MC.COMPANY_TYPE_ID: -2 _3 +3 _0MC_1_2_3  <= 61.9477
 Statistics_Ineq._70__4___h(0MC_1_2_3)___3___h(3)____4___log2(1552652.8676006738)_|_4_|_MC.COMPANY_TYPE_ID: -3 _3 +4 _0MC_1_2_3  <= 82.2652
 Statistics_Ineq._71__5___h(0MC_1_2_3)___4___h(3)____5___log2(1500166.817088087)_|_5_|_MC.COMPANY_TYPE_ID: -4 _3 +5 _0MC_1_2_3  <= 102.583
 Statistics_Ineq._72__6___h(0MC_1_2_3)___5___h(3)____6___log2(1466295.809685982)_|_6_|_MC.COMPANY_TYPE_ID: -5 _3 +6 _0MC_1_2_3  <= 122.902
 Statistics_Ineq._73__7___h(0MC_1_2_3)___6___h(3)____7___log2(1442680.6626064067)_|_7_|_MC.COMPANY_TYPE_ID: -6 _3 +7 _0MC_1_2_3  <= 143.222
 Statistics_Ineq._74__8___h(0MC_1_2_3)___7___h(3)____8___log2(1425312.9782620256)_|_8_|_MC.COMPANY_TYPE_ID: -7 _3 +8 _0MC_1_2_3  <= 163.543
 Statistics_Ineq._75__9___h(0MC_1_2_3)___8___h(3)____9___log2(1412031.354243233)_|_9_|_MC.COMPANY_TYPE_ID: -8 _3 +9 _0MC_1_2_3  <= 183.864
 Statistics_Ineq._76__10___h(0MC_1_2_3)___9___h(3)____10___log2(1401567.7204422245)_|_10_|_MC.COMPANY_TYPE_ID: -9 _3 +10 _0MC_1_2_3  <= 204.186
 Statistics_Ineq._77__h(0MC_1_2_3)___h(3)____log2(1334883.0)_|_inf_|_MC.COMPANY_TYPE_ID: -1 _3 +1 _0MC_1_2_3  <= 20.3483
 Statistics_Ineq._78__1___h(0MC_1_2_3)___0___h(2)____1___log2(2609129.0)_|_1_|_MC.COMPANY_ID: +1 _0MC_1_2_3  <= 21.3151
 Statistics_Ineq._79__2___h(0MC_1_2_3)___1___h(2)____2___log2(106883.15010795668)_|_2_|_MC.COMPANY_ID: -1 _2 +2 _0MC_1_2_3  <= 33.4113
 Statistics_Ineq._80__3___h(0MC_1_2_3)___2___h(2)____3___log2(75788.07259073698)_|_3_|_MC.COMPANY_ID: -2 _2 +3 _0MC_1_2_3  <= 48.629
 Statistics_Ineq._81__4___h(0MC_1_2_3)___3___h(2)____4___log2(68743.68174597787)_|_4_|_MC.COMPANY_ID: -3 _2 +4 _0MC_1_2_3  <= 64.2758
 Statistics_Ineq._82__5___h(0MC_1_2_3)___4___h(2)____5___log2(65836.53118034896)_|_5_|_MC.COMPANY_ID: -4 _2 +5 _0MC_1_2_3  <= 80.033
 Statistics_Ineq._83__6___h(0MC_1_2_3)___5___h(2)____6___log2(64352.605232193164)_|_6_|_MC.COMPANY_ID: -5 _2 +6 _0MC_1_2_3  <= 95.8423
 Statistics_Ineq._84__7___h(0MC_1_2_3)___6___h(2)____7___log2(63514.550164509055)_|_7_|_MC.COMPANY_ID: -6 _2 +7 _0MC_1_2_3  <= 111.684
 Statistics_Ineq._85__8___h(0MC_1_2_3)___7___h(2)____8___log2(63012.11279193569)_|_8_|_MC.COMPANY_ID: -7 _2 +8 _0MC_1_2_3  <= 127.547
 Statistics_Ineq._86__9___h(0MC_1_2_3)___8___h(2)____9___log2(62698.45498555785)_|_9_|_MC.COMPANY_ID: -8 _2 +9 _0MC_1_2_3  <= 143.425
 Statistics_Ineq._87__10___h(0MC_1_2_3)___9___h(2)____10___log2(62496.76791365353)_|_10_|_MC.COMPANY_ID: -9 _2 +10 _0MC_1_2_3  <= 159.315
 Statistics_Ineq._88__h(0MC_1_2_3)___h(2)____log2(62075.0)_|_inf_|_MC.COMPANY_ID: -1 _2 +1 _0MC_1_2_3  <= 15.9217
 Statistics_Ineq._89__1___h(0MI_1_4)___0___h(1)____1___log2(6285995.0)_|_1_|_MI.MOVIE_ID: +1 _0MI_1_4  <= 22.5837
 Statistics_Ineq._90__2___h(0MI_1_4)___1___h(1)____2___log2(22272.950657692392)_|_2_|_MI.MOVIE_ID: -1 _1 +2 _0MI_1_4  <= 28.886
 Statistics_Ineq._91__3___h(0MI_1_4)___2___h(1)____3___log2(5531.055696358995)_|_3_|_MI.MOVIE_ID: -2 _1 +3 _0MI_1_4  <= 37.3
 Statistics_Ineq._92__4___h(0MI_1_4)___3___h(1)____4___log2(3539.6173326229846)_|_4_|_MI.MOVIE_ID: -3 _1 +4 _0MI_1_4  <= 47.1575
 Statistics_Ineq._93__5___h(0MI_1_4)___4___h(1)____5___log2(3106.304011989327)_|_5_|_MI.MOVIE_ID: -4 _1 +5 _0MI_1_4  <= 58.0049
 Statistics_Ineq._94__6___h(0MI_1_4)___5___h(1)____6___log2(2993.7440704155483)_|_6_|_MI.MOVIE_ID: -5 _1 +6 _0MI_1_4  <= 69.2864
 Statistics_Ineq._95__7___h(0MI_1_4)___6___h(1)____7___log2(2958.7564854889574)_|_7_|_MI.MOVIE_ID: -6 _1 +7 _0MI_1_4  <= 80.7154
 Statistics_Ineq._96__8___h(0MI_1_4)___7___h(1)____8___log2(2946.1084017705402)_|_8_|_MI.MOVIE_ID: -7 _1 +8 _0MI_1_4  <= 92.1968
 Statistics_Ineq._97__9___h(0MI_1_4)___8___h(1)____9___log2(2941.037811742483)_|_9_|_MI.MOVIE_ID: -8 _1 +9 _0MI_1_4  <= 103.699
 Statistics_Ineq._98__10___h(0MI_1_4)___9___h(1)____10___log2(2938.861369246534)_|_10_|_MI.MOVIE_ID: -9 _1 +10 _0MI_1_4  <= 115.21
 Statistics_Ineq._99__h(0MI_1_4)___h(1)____log2(2937.0)_|_inf_|_MI.MOVIE_ID: -1 _1 +1 _0MI_1_4  <= 11.5201
 Statistics_Ineq._100__1___h(0MI_1_4)___0___h(4)____1___log2(14835720.0)_|_1_|_MI.INFO_TYPE_ID: +1 _0MI_1_4  <= 23.8226
 Statistics_Ineq._101__2___h(0MI_1_4)___1___h(4)____2___log2(4572034.223464868)_|_2_|_MI.INFO_TYPE_ID: -1 _4 +2 _0MI_1_4  <= 44.2488
 Statistics_Ineq._102__3___h(0MI_1_4)___2___h(4)____3___log2(3486243.0281909658)_|_3_|_MI.INFO_TYPE_ID: -2 _4 +3 _0MI_1_4  <= 65.1997
 Statistics_Ineq._103__4___h(0MI_1_4)___3___h(4)____4___log2(3193457.0484238626)_|_4_|_MI.INFO_TYPE_ID: -3 _4 +4 _0MI_1_4  <= 86.4268
 Statistics_Ineq._104__5___h(0MI_1_4)___4___h(4)____5___log2(3095215.672236246)_|_5_|_MI.INFO_TYPE_ID: -4 _4 +5 _0MI_1_4  <= 107.808
 Statistics_Ineq._105__6___h(0MI_1_4)___5___h(4)____6___log2(3059428.0080923685)_|_6_|_MI.INFO_TYPE_ID: -5 _4 +6 _0MI_1_4  <= 129.269
 Statistics_Ineq._106__7___h(0MI_1_4)___6___h(4)____7___log2(3045794.1446837164)_|_7_|_MI.INFO_TYPE_ID: -6 _4 +7 _0MI_1_4  <= 150.769
 Statistics_Ineq._107__8___h(0MI_1_4)___7___h(4)____8___log2(3040432.0968020344)_|_8_|_MI.INFO_TYPE_ID: -7 _4 +8 _0MI_1_4  <= 172.287
 Statistics_Ineq._108__9___h(0MI_1_4)___8___h(4)____9___log2(3038268.697191814)_|_9_|_MI.INFO_TYPE_ID: -8 _4 +9 _0MI_1_4  <= 193.813
 Statistics_Ineq._109__10___h(0MI_1_4)___9___h(4)____10___log2(3037376.9198407093)_|_10_|_MI.INFO_TYPE_ID: -9 _4 +10 _0MI_1_4  <= 215.344
 Statistics_Ineq._110__h(0MI_1_4)___h(4)____log2(3036719.0)_|_inf_|_MI.INFO_TYPE_ID: -1 _4 +1 _0MI_1_4  <= 21.5341
 Statistics_Ineq._111__1___h(0MK_1_5)___0___h(1)____1___log2(4207795.0)_|_1_|_MK.MOVIE_ID: +1 _0MK_1_5  <= 22.0046
 Statistics_Ineq._112__2___h(0MK_1_5)___1___h(1)____2___log2(16169.366994412614)_|_2_|_MK.MOVIE_ID: -1 _1 +2 _0MK_1_5  <= 27.962
 Statistics_Ineq._113__3___h(0MK_1_5)___2___h(1)____3___log2(3343.7955673943925)_|_3_|_MK.MOVIE_ID: -2 _1 +3 _0MK_1_5  <= 35.1218
 Statistics_Ineq._114__4___h(0MK_1_5)___3___h(1)____4___log2(1671.540693648233)_|_4_|_MK.MOVIE_ID: -3 _1 +4 _0MK_1_5  <= 42.8279
 Statistics_Ineq._115__5___h(0MK_1_5)___4___h(1)____5___log2(1148.4788486955224)_|_5_|_MK.MOVIE_ID: -4 _1 +5 _0MK_1_5  <= 50.8275
 Statistics_Ineq._116__6___h(0MK_1_5)___5___h(1)____6___log2(914.941738692477)_|_6_|_MK.MOVIE_ID: -5 _1 +6 _0MK_1_5  <= 59.0252
 Statistics_Ineq._117__7___h(0MK_1_5)___6___h(1)____7___log2(789.6812830724535)_|_7_|_MK.MOVIE_ID: -6 _1 +7 _0MK_1_5  <= 67.3759
 Statistics_Ineq._118__8___h(0MK_1_5)___7___h(1)____8___log2(714.8129944782834)_|_8_|_MK.MOVIE_ID: -7 _1 +8 _0MK_1_5  <= 75.8514
 Statistics_Ineq._119__9___h(0MK_1_5)___8___h(1)____9___log2(666.8052492847414)_|_9_|_MK.MOVIE_ID: -8 _1 +9 _0MK_1_5  <= 84.4301
 Statistics_Ineq._120__10___h(0MK_1_5)___9___h(1)____10___log2(634.4708714390166)_|_10_|_MK.MOVIE_ID: -9 _1 +10 _0MK_1_5  <= 93.0941
 Statistics_Ineq._121__h(0MK_1_5)___h(1)____log2(540.0)_|_inf_|_MK.MOVIE_ID: -1 _1 +1 _0MK_1_5  <= 9.07682
 Statistics_Ineq._122__1___h(0MK_1_5)___0___h(5)____1___log2(4523930.0)_|_1_|_MK.KEYWORD_ID: +1 _0MK_1_5  <= 22.1091
 Statistics_Ineq._123__2___h(0MK_1_5)___1___h(5)____2___log2(142540.5972767057)_|_2_|_MK.KEYWORD_ID: -1 _5 +2 _0MK_1_5  <= 34.242
 Statistics_Ineq._124__3___h(0MK_1_5)___2___h(5)____3___log2(91933.95257125433)_|_3_|_MK.KEYWORD_ID: -2 _5 +3 _0MK_1_5  <= 49.4649
 Statistics_Ineq._125__4___h(0MK_1_5)___3___h(5)____4___log2(82003.06320560009)_|_4_|_MK.KEYWORD_ID: -3 _5 +4 _0MK_1_5  <= 65.2936
 Statistics_Ineq._126__5___h(0MK_1_5)___4___h(5)____5___log2(78043.67590316865)_|_5_|_MK.KEYWORD_ID: -4 _5 +5 _0MK_1_5  <= 81.26
 Statistics_Ineq._127__6___h(0MK_1_5)___5___h(5)____6___log2(76018.0546797557)_|_6_|_MK.KEYWORD_ID: -5 _5 +6 _0MK_1_5  <= 97.2843
 Statistics_Ineq._128__7___h(0MK_1_5)___6___h(5)____7___log2(74849.51552507188)_|_7_|_MK.KEYWORD_ID: -6 _5 +7 _0MK_1_5  <= 113.342
 Statistics_Ineq._129__8___h(0MK_1_5)___7___h(5)____8___log2(74123.73792740938)_|_8_|_MK.KEYWORD_ID: -7 _5 +8 _0MK_1_5  <= 129.421
 Statistics_Ineq._130__9___h(0MK_1_5)___8___h(5)____9___log2(73649.49002095767)_|_9_|_MK.KEYWORD_ID: -8 _5 +9 _0MK_1_5  <= 145.515
 Statistics_Ineq._131__10___h(0MK_1_5)___9___h(5)____10___log2(73328.0635960675)_|_10_|_MK.KEYWORD_ID: -9 _5 +10 _0MK_1_5  <= 161.621
 Statistics_Ineq._132__h(0MK_1_5)___h(5)____log2(72496.0)_|_inf_|_MK.KEYWORD_ID: -1 _5 +1 _0MK_1_5  <= 16.1456
 Statistics_Ineq._133__1___h(0T_1)___0___h(1)____1___log2(262144.0)_|_1_|_T.ID: +1 _0T_1  <= 18
 Statistics_Ineq._134__2___h(0T_1)___1___h(1)____2___log2(512.0)_|_2_|_T.ID: -1 _1 +2 _0T_1  <= 18
 Statistics_Ineq._135__3___h(0T_1)___2___h(1)____3___log2(63.999999999999986)_|_3_|_T.ID: -2 _1 +3 _0T_1  <= 18
 Statistics_Ineq._136__4___h(0T_1)___3___h(1)____4___log2(22.627416997969522)_|_4_|_T.ID: -3 _1 +4 _0T_1  <= 18
 Statistics_Ineq._137__5___h(0T_1)___4___h(1)____5___log2(12.125732532083186)_|_5_|_T.ID: -4 _1 +5 _0T_1  <= 18
 Statistics_Ineq._138__6___h(0T_1)___5___h(1)____6___log2(7.999999999999999)_|_6_|_T.ID: -5 _1 +6 _0T_1  <= 18
 Statistics_Ineq._139__7___h(0T_1)___6___h(1)____7___log2(5.943977156547793)_|_7_|_T.ID: -6 _1 +7 _0T_1  <= 18
 Statistics_Ineq._140__8___h(0T_1)___7___h(1)____8___log2(4.756828460010884)_|_8_|_T.ID: -7 _1 +8 _0T_1  <= 18
 Statistics_Ineq._141__9___h(0T_1)___8___h(1)____9___log2(3.9999999999999996)_|_9_|_T.ID: -8 _1 +9 _0T_1  <= 18
 Statistics_Ineq._142__10___h(0T_1)___9___h(1)____10___log2(3.482202253184497)_|_10_|_T.ID: -9 _1 +10 _0T_1  <= 18
 Statistics_Ineq._143__h(0T_1)___h(1)____log2(1.0)_|_inf_|_T.ID: -1 _1 +1 _0T_1  <= 0
Bounds
 0 <= _1
 0 <= _2
 0 <= _3
 0 <= _4
 0 <= _5
 0 <= _0AT
 0 <= _0AT_1
 0 <= _0CN
 0 <= _0CN_2
 0 <= _0CT
 0 <= _0CT_3
 0 <= _0IT1
 0 <= _0IT1_4
 0 <= _0K
 0 <= _0K_5
 0 <= _0MC
 0 <= _0MC_1_2_3
 0 <= _0MI
 0 <= _0MI_1_4
 0 <= _0MK
 0 <= _0MK_1_5
 0 <= _0T
 0 <= _0T_1
End
